RT is False
Default write of storage_offers_DA.csv just to have a file (but constraint should be inactive)
Reading model...
...model read.
creating competitive generators file...
...competitive generators recorded.
Loading data...
.. day-ahead data with real-time VRE data read.
Compiling instance...
...instance created.
Creating Offer Mitigation (model will solve as dispatch if TRUE)...
Solving...

Welcome to IBM(R) ILOG(R) CPLEX(R) Interactive Optimizer 12.9.0.0
  with Simplex, Mixed Integer & Barrier Optimizers
5725-A06 5725-A29 5724-Y48 5724-Y49 5724-Y54 5724-Y55 5655-Y21
Copyright IBM Corp. 1988, 2019.  All Rights Reserved.

Type 'help' for a list of available commands.
Type 'help' followed by a command name for more
information on commands.

CPLEX> Logfile 'cplex.log' closed.
Logfile 'C:\Users\llavin\Desktop\test919\logs\tmpsvimo_59.cplex.log' open.
CPLEX> New value for parallel optimization mode: -1
CPLEX> New value for mixed integer optimality gap tolerance: 0.01
CPLEX> New value for integrality tolerance: 1e-09
CPLEX> New value for feasibility tolerance: 0.01
CPLEX> New value for deterministic time limit in ticks: 75000
CPLEX> Problem 'C:\Users\llavin\Desktop\test919\logs\tmp91jozlxj.pyomo.lp' read.
Read time = 0.05 sec. (3.04 ticks)
CPLEX> Problem name         : C:\Users\llavin\Desktop\test919\logs\tmp91jozlxj.pyomo.lp
Objective sense      : Minimize
Variables            :   26081  [Nneg: 1,  Box: 21616,  Free: 4464]
Objective nonzeros   :    2496
Linear constraints   :   27515  [Less: 14006,  Greater: 4416,  Equal: 9093]
  Nonzeros           :   89267
  RHS nonzeros       :   12271

Variables            : Min LB: -5000.000        Max UB: 1000000.       
Objective nonzeros   : Min   : 15.73158         Max   : 124.0997       
Linear constraints   :
  Nonzeros           : Min   : 0.8500000        Max   : 3000.000       
  RHS nonzeros       : Min   : 0.07500000       Max   : 5000.000       
CPLEX> CPXPARAM_Parallel                                -1
CPXPARAM_Simplex_Tolerances_Feasibility          0.01
CPXPARAM_DetTimeLimit                            75000
CPXPARAM_MIP_Tolerances_MIPGap                   0.01
CPXPARAM_MIP_Tolerances_Integrality              1.0000000000000001e-09
Parallel mode: opportunistic, using up to 32 threads for concurrent optimization.
Tried aggregator 1 time.
LP Presolve eliminated 21353 rows and 15463 columns.
Aggregator did 775 substitutions.
Reduced LP has 5387 rows, 9843 columns, and 31802 nonzeros.
Presolve time = 0.05 sec. (30.47 ticks)
Symmetry aggregator did 5563 additional substitutions.

Iteration log . . .
Iteration:     1   Dual objective     =             0.000000
Perturbation started.
Iteration:   101   Dual objective     =             0.000000
Iteration:   327   Dual objective     =             1.173191
Iteration:   581   Dual objective     =             1.697342
Iteration:   839   Dual objective     =             1.820142
Iteration:  1046   Dual objective     =             1.939153
Iteration:  1330   Dual objective     =             1.989504
Iteration:  1581   Dual objective     =             2.017920
Iteration:  1799   Dual objective     =         62176.602120
Iteration:  1999   Dual objective     =        272004.225998
Iteration:  2178   Dual objective     =        329631.016097
Iteration:  2372   Dual objective     =        330668.434013
Iteration:  2618   Dual objective     =        331601.848135
Iteration:  3056   Dual objective     =        332828.152460
Removing perturbation.
Dual superbasis not built.
Using devex.

Primal simplex solved model.


Primal simplex - Optimal:  Objective =  3.3282604351e+05
Solution time =    0.16 sec.  Iterations = 1654 (1063)
Deterministic time = 82.31 ticks  (527.62 ticks/sec)

CPLEX> Solution written to file 'C:\Users\llavin\Desktop\test919\logs\tmpiiqljktm.cplex.sol'.
CPLEX> Exporting results... 
...storage offer mitigation file created
Converting model to MPEC...
...converted
NOTE: initial MIP solve with only storage competitive to get feasible solution
Solving...

Welcome to IBM(R) ILOG(R) CPLEX(R) Interactive Optimizer 12.9.0.0
  with Simplex, Mixed Integer & Barrier Optimizers
5725-A06 5725-A29 5724-Y48 5724-Y49 5724-Y54 5724-Y55 5655-Y21
Copyright IBM Corp. 1988, 2019.  All Rights Reserved.

Type 'help' for a list of available commands.
Type 'help' followed by a command name for more
information on commands.

CPLEX> Logfile 'cplex.log' closed.
Logfile 'C:\Users\llavin\Desktop\test919\logs\tmpe5rlxzax.cplex.log' open.
CPLEX> New value for parallel optimization mode: -1
CPLEX> New value for mixed integer optimality gap tolerance: 0.01
CPLEX> New value for integrality tolerance: 1e-09
CPLEX> New value for feasibility tolerance: 0.01
CPLEX> New value for deterministic time limit in ticks: 75000
CPLEX> Problem 'C:\Users\llavin\Desktop\test919\logs\tmpaahmvdpq.pyomo.lp' read.
Read time = 0.25 sec. (14.78 ticks)
CPLEX> Problem name         : C:\Users\llavin\Desktop\test919\logs\tmpaahmvdpq.pyomo.lp
Objective sense      : Maximize
Variables            :   53805  [Nneg: 1,  Box: 22000,  Free: 4464,
                                 Binary: 27340]
Objective nonzeros   :    8980
Linear constraints   :  123205  [Less: 41346,  Greater: 59096,  Equal: 22763]
  Nonzeros           :  291801
  RHS nonzeros       :   67461

Variables            : Min LB: -5000.000        Max UB: 1000000.       
Objective nonzeros   : Min   : 0.07500000       Max   : 816.0833       
Linear constraints   :
  Nonzeros           : Min   : 0.07500000       Max   : 1000000.       
  RHS nonzeros       : Min   : 0.07500000       Max   : 1000000.       
CPLEX> CPXPARAM_Parallel                                -1
CPXPARAM_Simplex_Tolerances_Feasibility          0.01
CPXPARAM_DetTimeLimit                            75000
CPXPARAM_MIP_Tolerances_MIPGap                   0.01
CPXPARAM_MIP_Tolerances_Integrality              1.0000000000000001e-09
Tried aggregator 3 times.
MIP Presolve eliminated 88673 rows and 18973 columns.
MIP Presolve added 3364 rows and 0 columns.
MIP Presolve modified 24870 coefficients.
Aggregator did 12969 substitutions.
Reduced MIP has 24927 rows, 21307 columns, and 71117 nonzeros.
Reduced MIP has 8400 binaries, 0 generals, 0 SOSs, and 0 indicators.
Presolve time = 0.30 sec. (173.57 ticks)
Probing fixed 388 vars, tightened 2804 bounds.
Probing time = 1.20 sec. (889.02 ticks)
Tried aggregator 2 times.
MIP Presolve eliminated 874 rows and 776 columns.
MIP Presolve modified 2192 coefficients.
Aggregator did 38 substitutions.
Reduced MIP has 24015 rows, 20493 columns, and 68479 nonzeros.
Reduced MIP has 8012 binaries, 0 generals, 0 SOSs, and 0 indicators.
Presolve time = 0.11 sec. (66.26 ticks)
Probing time = 0.03 sec. (16.08 ticks)
Clique table members: 6473.
MIP emphasis: balance optimality and feasibility.
MIP search method: dynamic search.
Parallel mode: opportunistic, using up to 32 threads.
Root relaxation solution time = 0.45 sec. (320.78 ticks)

        Nodes                                         Cuts/
   Node  Left     Objective  IInf  Best Integer    Best Bound    ItCnt     Gap

      0     0     7957.9721  1874                   7957.9721     6927         
      0     0     7957.9721   643                   Cuts: 770     7294         
      0     0     7957.6893   538                   Cuts: 490     7498         
      0     0     7957.4065   429                   Cuts: 314     7632         
      0     0     7957.4065   388                   Cuts: 142     7697         
      0     0     7957.4065   356                   Cuts: 111     7739         
      0     0     7957.4065   341                    Cuts: 68     7757         
      0     0     7957.4065   338                    Cuts: 46     7765         
      0    29    infeasible                           Cuts: 5     7988         
Elapsed time = 10.00 sec. (6513.93 ticks, tree = 0.25 MB, solutions = 0)
    488    77     7931.6630    14                   7954.8938     8455         
*   847   314      integral     0     7954.8938     7954.8938     9941    0.00%
    887   368     7826.3033     7     7954.8938     7954.8938    10068    0.00%
*   915   342      integral     0     7954.8938     7954.8938    10020    0.00%

Clique cuts applied:  21
Cover cuts applied:  4
Implied bound cuts applied:  15
Flow cuts applied:  326
Mixed integer rounding cuts applied:  19
Gomory fractional cuts applied:  48

Root node processing (before b&c):
  Real time             =    8.83 sec. (6505.86 ticks)
Parallel b&c, 32 threads:
  Real time             =    3.73 sec. (594.52 ticks)
  Sync time (average)   =    0.56 sec.
  Wait time (average)   =    0.00 sec.
                          ------------
Total (root+branch&cut) =   12.56 sec. (7100.38 ticks)

Solution pool: 2 solutions saved.

MIP - Integer optimal solution:  Objective =  7.9548938449e+03
Solution time =   12.59 sec.  Iterations = 11405  Nodes = 939
Deterministic time = 7100.54 ticks  (563.80 ticks/sec)

CPLEX> Incumbent solution written to file 'C:\Users\llavin\Desktop\test919\logs\tmpyv7o6486.cplex.sol'.
CPLEX> NOTE: no warmstart specified for MIP iteration, default behavior is true
NOTE: resolving with all competitive generators using storage-only solution to warmstart
Solving...

Welcome to IBM(R) ILOG(R) CPLEX(R) Interactive Optimizer 12.9.0.0
  with Simplex, Mixed Integer & Barrier Optimizers
5725-A06 5725-A29 5724-Y48 5724-Y49 5724-Y54 5724-Y55 5655-Y21
Copyright IBM Corp. 1988, 2019.  All Rights Reserved.

Type 'help' for a list of available commands.
Type 'help' followed by a command name for more
information on commands.

CPLEX> Logfile 'cplex.log' closed.
Logfile 'C:\Users\llavin\Desktop\test919\logs\tmp9lz8qdu5.cplex.log' open.
CPLEX> New value for parallel optimization mode: -1
CPLEX> New value for mixed integer optimality gap tolerance: 0.01
CPLEX> New value for integrality tolerance: 1e-09
CPLEX> New value for feasibility tolerance: 0.01
CPLEX> New value for deterministic time limit in ticks: 75000
CPLEX> Problem 'C:\Users\llavin\Desktop\test919\logs\tmpul715xb5.pyomo.lp' read.
Read time = 0.23 sec. (14.81 ticks)
CPLEX> MIP start file 'C:\Users\llavin\Desktop\test919\logs\tmpyxma6yfn.cplex.mst' read.
CPLEX> Problem name         : C:\Users\llavin\Desktop\test919\logs\tmpul715xb5.pyomo.lp
Objective sense      : Maximize
Variables            :   54525  [Nneg: 1,  Box: 22720,  Free: 4464,
                                 Binary: 27340]
Objective nonzeros   :    9700
Linear constraints   :  123205  [Less: 41346,  Greater: 59096,  Equal: 22763]
  Nonzeros           :  291801
  RHS nonzeros       :   67461

Variables            : Min LB: -5000.000        Max UB: 1000000.       
Objective nonzeros   : Min   : 0.07500000       Max   : 816.0833       
Linear constraints   :
  Nonzeros           : Min   : 0.07500000       Max   : 1000000.       
  RHS nonzeros       : Min   : 0.07500000       Max   : 1000000.       
CPLEX> CPXPARAM_Parallel                                -1
CPXPARAM_Simplex_Tolerances_Feasibility          0.01
CPXPARAM_DetTimeLimit                            75000
CPXPARAM_MIP_Tolerances_MIPGap                   0.01
CPXPARAM_MIP_Tolerances_Integrality              1.0000000000000001e-09
Warning:  No solution found from 1 MIP starts.
Retaining values of one MIP start for possible repair.
Tried aggregator 3 times.
MIP Presolve eliminated 88673 rows and 19693 columns.
MIP Presolve added 3364 rows and 0 columns.
MIP Presolve modified 24870 coefficients.
Aggregator did 12969 substitutions.
Reduced MIP has 24927 rows, 21307 columns, and 71117 nonzeros.
Reduced MIP has 8400 binaries, 0 generals, 0 SOSs, and 0 indicators.
Presolve time = 0.28 sec. (173.93 ticks)
Probing fixed 388 vars, tightened 2804 bounds.
Probing time = 1.22 sec. (889.02 ticks)
Tried aggregator 2 times.
MIP Presolve eliminated 874 rows and 776 columns.
MIP Presolve modified 2192 coefficients.
Aggregator did 38 substitutions.
Reduced MIP has 24015 rows, 20493 columns, and 68479 nonzeros.
Reduced MIP has 8012 binaries, 0 generals, 0 SOSs, and 0 indicators.
Presolve time = 0.11 sec. (66.26 ticks)
Probing time = 0.05 sec. (16.08 ticks)
Clique table members: 6473.
MIP emphasis: balance optimality and feasibility.
MIP search method: dynamic search.
Parallel mode: opportunistic, using up to 32 threads.
Root relaxation solution time = 0.45 sec. (320.78 ticks)

        Nodes                                         Cuts/
   Node  Left     Objective  IInf  Best Integer    Best Bound    ItCnt     Gap

      0     0     7957.9721  1874                   7957.9721     6927         
      0     0     7957.9721   643                   Cuts: 770     7294         
      0     0     7957.6893   538                   Cuts: 490     7498         
      0     0     7957.4065   429                   Cuts: 314     7632         
      0     0     7957.4065   388                   Cuts: 142     7697         
      0     0     7957.4065   356                   Cuts: 111     7739         
      0     0     7957.4065   341                    Cuts: 68     7757         
      0     0     7957.4065   338                    Cuts: 46     7765         
Repair heuristic found nothing.
      0    17     7887.8951    21                     Cuts: 5     7811         
Elapsed time = 11.23 sec. (6718.55 ticks, tree = 0.02 MB, solutions = 0)
    650   158     7932.2315    18                   7954.8938     9944         
*   911   218      integral     0     7954.8938     7954.8938    10172    0.00%

Clique cuts applied:  21
Cover cuts applied:  3
Implied bound cuts applied:  15
Flow cuts applied:  326
Mixed integer rounding cuts applied:  19
Gomory fractional cuts applied:  48

Root node processing (before b&c):
  Real time             =    9.33 sec. (6675.73 ticks)
Parallel b&c, 32 threads:
  Real time             =    3.33 sec. (520.42 ticks)
  Sync time (average)   =    0.51 sec.
  Wait time (average)   =    0.00 sec.
                          ------------
Total (root+branch&cut) =   12.66 sec. (7196.15 ticks)

Solution pool: 1 solution saved.

MIP - Integer optimal solution:  Objective =  7.9548938449e+03
Solution time =   12.67 sec.  Iterations = 12087  Nodes = 927
Deterministic time = 7196.31 ticks  (567.89 ticks/sec)

CPLEX> Incumbent solution written to file 'C:\Users\llavin\Desktop\test919\logs\tmpw1dfud75.cplex.sol'.
CPLEX> Exporting results... 
